(set-logic ALL)
(set-option :produce-models true)
(declare-sort BoundSet 0)
(declare-sort UnboundSet 0)
(set-option :finite-model-find true)
(declare-fun ReleasesMoreCarbonDioxide (BoundSet) Bool)
(declare-fun SavesLessCarbonDioxide (BoundSet) Bool)
(declare-fun CarbonDioxideEmissions (BoundSet) Bool)
(declare-fun NotEffectiveInReducingEmissions (BoundSet) Bool)
(assert (not (=> (and (exists ((a BoundSet)) (and (ReleasesMoreCarbonDioxide a) (SavesLessCarbonDioxide a))) (forall ((e BoundSet)) (forall ((f BoundSet)) (=> (ReleasesMoreCarbonDioxide e) (CarbonDioxideEmissions f))))) (exists ((c BoundSet)) (exists ((d BoundSet)) (and (NotEffectiveInReducingEmissions c) (CarbonDioxideEmissions d)))))))
(check-sat)
(get-model)